Ag Pt
 1.0000000000000000
     3.8940000534000001    0.0000000000000000    0.0000000000000000
     0.0000000000000000    3.8940000534000001    0.0000000000000000
     0.0000000000000000    0.0000000000000000   74.9813463920316110
 Ag               Pt              
               46               16
Selective dynamics
Cartesian
  0.9735000133000030  2.9205000400000025 41.3846732494162310   F   F   F
  2.9205000400000025  2.9205000400000025 63.1248249733557287   T   T   T
  2.9205000400000025  0.9735000133000030 45.2786733028161592   F   F   F
  2.9205000400000025  2.9205000400000025 43.3316732761159500   F   F   F
  0.9735000133000030  2.9205000400000025 49.1726733562161016   F   F   F
  2.9205000400000025  0.9735000133000030 49.1726733562161016   F   F   F
  0.9735000133000030  2.9205000400000025 65.2311251271956394   T   T   T
  0.9735000133000030  2.9205000400000025 45.2786733028161592   F   F   F
  2.9205000400000025  2.9205000400000025 51.1196733829158205   F   F   F
  0.9735000133000030  2.9205000400000025 56.9606734630159650   F   F   F
  0.9735000133000030  2.9205000400000025 53.0666734096160368   F   F   F
  2.9205000400000025  0.9735000133000030 56.9606734630159650   F   F   F
  0.9735000133000030  2.9205000400000025 61.0176590064429547   T   T   T
  2.9205000400000025  0.9735000133000030 61.0176590064429547   T   T   T
  2.9205000400000025  2.9205000400000025 67.4813463920316110   T   T   T
  2.9205000400000025  0.9735000133000030 65.2311251271956394   T   T   T
  0.9735000133000030  2.9205000400000025 37.4906731960157984   F   F   F
  2.9205000400000025  0.9735000133000030 37.4906731960157984   F   F   F
  2.9205000400000025  2.9205000400000025 58.9076734897161813   F   F   F
  2.9205000400000025  2.9205000400000025 39.4376732227160218   F   F   F
  2.9205000400000025  0.9735000133000030 41.3846732494162310   F   F   F
  2.9205000400000025  2.9205000400000025 55.0136734363162461   F   F   F
  2.9205000400000025  2.9205000400000025 16.0736729023154297   F   F   F
  2.9205000400000025  2.9205000400000025 47.2256733295158782   F   F   F
  0.9735000133000030  2.9205000400000025 25.8086730358155059   F   F   F
  2.9205000400000025  0.9735000133000030 21.9146729824155742   F   F   F
  0.9735000133000030  2.9205000400000025  9.7502212648359627   T   T   T
  0.9735000133000030  2.9205000400000025 33.5966731426153729   F   F   F
  2.9205000400000025  0.9735000133000030 53.0666734096160368   F   F   F
  2.9205000400000025  2.9205000400000025  7.5000000000000000   T   T   T
  2.9205000400000025  0.9735000133000030 33.5966731426153729   F   F   F
  2.9205000400000025  2.9205000400000025 35.5436731693155892   F   F   F
  2.9205000400000025  2.9205000400000025 11.8565214186758752   T   T   T
  2.9205000400000025  0.9735000133000030 29.7026730892154447   F   F   F
  2.9205000400000025  0.9735000133000030 13.9636873855886563   T   T   T
  2.9205000400000025  0.9735000133000030  9.7502212648359627   T   T   T
  2.9205000400000025  0.9735000133000030 25.8086730358155059   F   F   F
  2.9205000400000025  2.9205000400000025 31.6496731159156539   F   F   F
  0.9735000133000030  2.9205000400000025 13.9636873855886563   T   T   T
  2.9205000400000025  0.9735000133000030 18.0206729290156460   F   F   F
  0.9735000133000030  2.9205000400000025 18.0206729290156460   F   F   F
  2.9205000400000025  2.9205000400000025 19.9676729557153649   F   F   F
  0.9735000133000030  2.9205000400000025 29.7026730892154447   F   F   F
  0.9735000133000030  2.9205000400000025 21.9146729824155742   F   F   F
  2.9205000400000025  2.9205000400000025 27.7556730625157257   F   F   F
  2.9205000400000025  2.9205000400000025 23.8616730091157869   F   F   F
  0.9735000133000030  0.9735000133000030 39.4376732227160218   F   F   F
  0.9735000133000030  0.9735000133000030 55.0136734363162461   F   F   F
  0.9735000133000030  0.9735000133000030 43.3316732761159500   F   F   F
  0.9735000133000030  0.9735000133000030 47.2256733295158782   F   F   F
  0.9735000133000030  0.9735000133000030 58.9076734897161813   F   F   F
  0.9735000133000030  0.9735000133000030 63.1136697363436454   T   T   T
  0.9735000133000030  0.9735000133000030 23.8616730091157869   F   F   F
  0.9735000133000030  0.9735000133000030 27.7556730625157257   F   F   F
  0.9735000133000030  0.9735000133000030 11.8676766556879656   T   T   T
  0.9735000133000030  0.9735000133000030 35.5436731693155892   F   F   F
  0.9735000133000030  0.9735000133000030 16.0736729023154297   F   F   F
  0.9735000133000030  0.9735000133000030 31.6496731159156539   F   F   F
  0.9735000133000030  0.9735000133000030 19.9676729557153649   F   F   F
  0.9735000133000030  0.9735000133000030 67.2507735726802309   T   T   T
  0.9735000133000030  0.9735000133000030 51.1196733829158205   F   F   F
  0.9735000133000030  0.9735000133000030  7.7305728193513730   T   T   T
